#Generated by Multiwfn
&GLOBAL
  PROJECT LiNaK
  PRINT_LEVEL LOW
  RUN_TYPE MD
&END GLOBAL

&FORCE_EVAL
  METHOD Quickstep
  &SUBSYS
    &CELL
      A    15.00000000     0.00000000     0.00000000
      B     0.00000000    15.00000000     0.00000000
      C     0.00000000     0.00000000    15.00000000
      PERIODIC XYZ #Direction of applied PBC (geometry aspect)
    &END CELL
    &COORD
    ****
    &END COORD
#   &VELOCITY #You can set initial atomic velocities in this section
#   &END VELOCITY
    &KIND Li   
      ELEMENT Li
      BASIS_SET DZVP-MOLOPT-SR-GTH
      POTENTIAL GTH-PBE
    &END KIND
  &END SUBSYS

  &DFT
    BASIS_SET_FILE_NAME  BASIS_MOLOPT
    POTENTIAL_FILE_NAME  POTENTIAL
#   WFN_RESTART_FILE_NAME LiNaK-RESTART.wfn
    CHARGE    0 #Net charge
    MULTIPLICITY    1 #Spin multiplicity
    &QS
      EPS_DEFAULT 1E-10 #This is default. Set all EPS_xxx to values such that the energy will be correct up to this value
      EXTRAPOLATION ASPC #Extrapolation for wavefunction during e.g. MD. ASPC is default, PS also be used
      EXTRAPOLATION_ORDER 3 #Order for PS or ASPC extrapolation. 3 is default
    &END QS
    &POISSON
      PERIODIC XYZ #Direction(s) of PBC for calculating electrostatics
      PSOLVER PERIODIC #The way to solve Poisson equation
    &END POISSON
    &XC
      &XC_FUNCTIONAL PBE
      &END XC_FUNCTIONAL
    &END XC
    &MGRID
      CUTOFF 400
      REL_CUTOFF 40
    &END MGRID
    &SCF
      MAX_SCF 128
      EPS_SCF 1.0E-05 #Convergence threshold of density matrix during SCF
#     SCF_GUESS RESTART #Use wavefunction from WFN_RESTART_FILE_NAME file as initial guess
      &DIAGONALIZATION
        ALGORITHM STANDARD #Algorithm for diagonalization. DAVIDSON is faster for large systems
      &END DIAGONALIZATION
      &MIXING #How to mix old and new density matrices
        METHOD BROYDEN_MIXING #PULAY_MIXING is also a good alternative
        ALPHA 0.4 #Default. Mixing 40% of new density matrix with the old one
        NBROYDEN 8 #Default is 4. Number of previous steps stored for the actual mixing scheme
      &END MIXING
      &PRINT
        &RESTART #Use "&RESTART OFF" can prevent generating wfn file
          BACKUP_COPIES 0 #Maximum number of backup copies of wfn file
        &END RESTART
      &END PRINT
    &END SCF
  &END DFT
  &PRINT
    &FORCES ON
	&END FORCES
  &END PRINT
&END FORCE_EVAL

&MOTION
  &MD
    ENSEMBLE NVE
    STEPS 5000
    TIMESTEP 1.0 #fs. Decrease it properly for high temperature simulation
    TEMPERATURE 500 #Initial and maintained temperature (K)
  &END MD
  &PRINT
    &TRAJECTORY
      &EACH
        MD     1 #Output frequency of geometry
      &END EACH
      FORMAT pdb
    &END TRAJECTORY
    &VELOCITIES
      &EACH
        MD     1 #Output frequency of velocity
      &END EACH
    &END VELOCITIES
    &RESTART
      BACKUP_COPIES 0 #Maximum number of backing up restart file
      &EACH
        MD 1 #Frequency of updating last restart file
      &END EACH
    &END RESTART
  &END PRINT
&END MOTION
